p cnf 10 25
-2 3 -7 0
1 -2 -8 0
1 2 9 0
-3 -7 8 0
-5 6 -7 0
-4 -7 -10 0
6 7 -8 0
1 -4 -9 0
4 -9 10 0
-5 -7 -10 0
5 -6 8 0
7 -8 -10 0
-1 -5 8 0
-1 -2 6 0
-2 8 -9 0
-5 -9 -10 0
-4 -6 10 0
1 2 7 0
2 -8 9 0
-7 8 10 0
1 5 -8 0
2 4 -5 0
-5 7 -10 0
-3 -4 -6 0
-2 5 -6 0
